
%FILE DATA:	Soccer Computational Problem for MiniZinc Models	%
%AUTHOR:	Jack Wall	%
%CONTACT:  	116397063@umail.ucc.ie			%
%LAST UPDATE:	02/24/2020, 18:51:12						%
%DESCRIPTION: 	49 games played with 23 games left				%


n=9; %number of teams

%Games to play
games=[|4,2|4,1|6,8|1,4|4,5|2,3|3,5|2,5|6,1|7,3|7,6|2,1|4,6|2,9|3,7|3,2|1,9|5,3|6,2|4,9|6,3|6,4|9,6|];

%Initial points
iPoints=[7,17,13,16,19,12,19,23,11];

%POSITION CONSTRAINTS
% [|teamID, operator, position|...]
% operators index:
%  1 for =  operator
%  2 for >  operator
%  3 for >= operator
%  4 for <  operator
%  5 for <= operator
positionConstraints=[|4,1,1|6,1,2|8,1,3|5,3,4|7,2,4|3,5,6|];